data/solutions/recovery/degenerate/intermediate/flexible/degenerate_intermediate_instance23/71.sol
Elapsed time: 100.17
Upper bound: 227605273.0
Planning weighted value: 8.99573822557e+11
C[0]=227605273.0
C[1]=227597019.0
C[2]=227563733.0
C[3]=226967116.0
C[4]=226836959.0
C[5]=226330664.0
C[6]=226102549.0
C[7]=225908821.0
C[8]=224741367.0
C[9]=223203261.0
C[10]=219549138.0
C[11]=0.0
y[0]=3
y[1]=6
y[2]=8
y[3]=4
y[4]=4
y[5]=8
y[6]=6
y[7]=7
y[8]=5
y[9]=0
y[10]=1
y[11]=6
y[12]=3
y[13]=0
y[14]=3
y[15]=1
y[16]=1
y[17]=3
y[18]=2
y[19]=2
y[20]=8
y[21]=10
y[22]=1
y[23]=9
y[24]=8
y[25]=7
y[26]=8
y[27]=5
y[28]=6
y[29]=5
y[30]=9
y[31]=1
y[32]=10
y[33]=2
y[34]=9
y[35]=1
y[36]=4
y[37]=7
y[38]=0
y[39]=3
y[40]=2
y[41]=8
y[42]=10
y[43]=10
y[44]=8
y[45]=0
y[46]=7
y[47]=0
y[48]=3
y[49]=6
y[50]=2
y[51]=2
y[52]=9
y[53]=1
y[54]=6
y[55]=3
y[56]=5
y[57]=10
y[58]=5
y[59]=0
y[60]=9
y[61]=1
y[62]=4
y[63]=5
y[64]=7
y[65]=7
y[66]=3
y[67]=3
y[68]=4
y[69]=9
y[70]=0
y[71]=10
y[72]=0
y[73]=3
y[74]=0
y[75]=6
y[76]=9
y[77]=5
