data/solutions/recovery/degenerate/intermediate/flexible/degenerate_intermediate_instance23/71.log

Log started (V12.6.3.0) Sat Apr 21 16:27:26 2018

New value for default parallel thread count: 1

Problem '/tmp/tmptqAri5.pyomo.lp' read.
Read time = 0.01 sec. (0.84 ticks)

Problem name         : /tmp/tmptqAri5.pyomo.lp
Objective sense      : Minimize
Variables            :     950  [Nneg: 1,  Binary: 936,  General Integer: 13]
Objective nonzeros   :       1
Linear constraints   :     182  [Less: 90,  Equal: 92]
  Nonzeros           :   60259
  RHS nonzeros       :     157

Variables            : Min LB: 0.000000         Max UB: 1.000000       
Objective nonzeros   : Min   : 1.000000         Max   : 1.000000       
Linear constraints   :
  Nonzeros           : Min   : 1.000000         Max   : 6.145599e+07   
  RHS nonzeros       : Min   : 1.000000         Max   : 8.000000       
Tried aggregator 2 times.
MIP Presolve eliminated 82 rows and 141 columns.
Aggregator did 5 substitutions.
Reduced MIP has 95 rows, 804 columns, and 2247 nonzeros.
Reduced MIP has 792 binaries, 12 generals, 0 SOSs, and 0 indicators.
Presolve time = 0.01 sec. (10.91 ticks)
Found incumbent of value 8.0830179e+08 after 0.01 sec. (12.45 ticks)
Probing time = 0.00 sec. (1.59 ticks)
Tried aggregator 1 time.
Reduced MIP has 95 rows, 804 columns, and 2247 nonzeros.
Reduced MIP has 792 binaries, 12 generals, 0 SOSs, and 0 indicators.
Presolve time = 0.00 sec. (1.15 ticks)
Probing time = 0.00 sec. (1.59 ticks)
Clique table members: 72.
MIP emphasis: balance optimality and feasibility.
MIP search method: dynamic search.
Parallel mode: none, using 1 thread.
Root relaxation solution time = 0.00 sec. (1.44 ticks)

        Nodes                                         Cuts/
   Node  Left     Objective  IInf  Best Integer    Best Bound    ItCnt     Gap

*     0+    0                       8.08302e+08        0.0000           100.00%
      0     0   2.25673e+08    29   8.08302e+08   2.25673e+08      131   72.08%
      0     0   2.25673e+08    22   8.08302e+08      Fract: 7      144   72.08%
      0     0   2.25673e+08    25   8.08302e+08      Fract: 6      161   72.08%
*     0+    0                       2.51488e+08   2.25673e+08            10.26%
*     0+    0                       2.47341e+08   2.25673e+08             8.76%
*     0+    0                       2.46551e+08   2.25673e+08             8.47%
*     0+    0                       2.39132e+08   2.25673e+08             5.63%
*     0+    0                       2.38352e+08   2.25673e+08             5.32%
      0     2   2.25673e+08    16   2.38352e+08   2.25673e+08      161    5.32%
Elapsed time = 0.05 sec. (53.40 ticks, tree = 0.01 MB, solutions = 6)
*   251   177      integral     0   2.36152e+08   2.25673e+08     2099    4.44%
*   300+  215                       2.35188e+08   2.25673e+08             4.05%
*   300+  208                       2.34577e+08   2.25673e+08             3.80%
*   360+  233                       2.32202e+08   2.25673e+08             2.81%
*   460+  319                       2.31196e+08   2.25673e+08             2.39%
    572   420   2.25673e+08    18   2.31196e+08   2.25673e+08     3312    2.39%
*   573+  280                       2.30652e+08   2.25673e+08             2.16%
*   573+  186                       2.30635e+08   2.25673e+08             2.15%
    573   187   2.25673e+08    22   2.30635e+08   2.25673e+08     3639    2.15%
    574   188   2.25673e+08    22   2.30635e+08   2.25673e+08     3640    2.15%
    575   188   2.25673e+08    25   2.30635e+08   2.25673e+08     3650    2.15%
    576   189   2.25673e+08    22   2.30635e+08   2.25673e+08     3656    2.15%
    577   190   2.25673e+08    22   2.30635e+08   2.25673e+08     3661    2.15%
    578   191   2.25673e+08    21   2.30635e+08   2.25673e+08     3666    2.15%
    579   192   2.25673e+08    25   2.30635e+08   2.25673e+08     3686    2.15%
    580   192   2.25673e+08    21   2.30635e+08   2.25673e+08     3687    2.15%
    873   220   2.30377e+08    29   2.30635e+08   2.25673e+08     5346    2.15%
Elapsed time = 0.87 sec. (1048.55 ticks, tree = 0.12 MB, solutions = 13)
*  1173+  334                       2.29826e+08   2.25673e+08             1.81%
   2326  1109        cutoff         2.29826e+08   2.25673e+08     9149    1.81%
   2327  1110   2.26676e+08    34   2.29826e+08   2.25673e+08     9202    1.81%
   2328  1111   2.26676e+08    35   2.29826e+08   2.25673e+08     9203    1.81%
   2329  1112   2.26676e+08    35   2.29826e+08   2.25673e+08     9204    1.81%
   2330  1113   2.26676e+08    33   2.29826e+08   2.25673e+08     9207    1.81%
   2331  1114   2.26676e+08    33   2.29826e+08   2.25673e+08     9208    1.81%
   2332  1115   2.26756e+08    33   2.29826e+08   2.25673e+08     9215    1.81%
   2333  1116   2.26756e+08    33   2.29826e+08   2.25673e+08     9218    1.81%
   2334  1117   2.26756e+08    31   2.29826e+08   2.25673e+08     9220    1.81%
   2335  1118   2.26756e+08    32   2.29826e+08   2.25673e+08     9224    1.81%
Elapsed time = 1.65 sec. (2007.55 ticks, tree = 0.69 MB, solutions = 14)
   5318  3647   2.25673e+08    21   2.29826e+08   2.25673e+08    25791    1.81%
   5319  3648   2.25673e+08    20   2.29826e+08   2.25673e+08    25793    1.81%
   5320  3649   2.25673e+08    20   2.29826e+08   2.25673e+08    25797    1.81%
   5321  3650   2.25673e+08    20   2.29826e+08   2.25673e+08    25801    1.81%
   5322  3651   2.25673e+08    20   2.29826e+08   2.25673e+08    25803    1.81%
   5323  3652   2.25673e+08    20   2.29826e+08   2.25673e+08    25811    1.81%
   5324  3653   2.25673e+08    20   2.29826e+08   2.25673e+08    25812    1.81%
   5325  3654   2.25673e+08    20   2.29826e+08   2.25673e+08    25823    1.81%
   5326  3655   2.25673e+08    20   2.29826e+08   2.25673e+08    25827    1.81%
   5327  3656   2.25673e+08    20   2.29826e+08   2.25673e+08    25833    1.81%
Elapsed time = 2.38 sec. (2963.15 ticks, tree = 2.25 MB, solutions = 14)
   8104  5711   2.25691e+08    18   2.29826e+08   2.25673e+08    45617    1.81%
   8105  5710        cutoff         2.29826e+08   2.25673e+08    45625    1.81%
   8106  5709    infeasible         2.29826e+08   2.25673e+08    45671    1.81%
   8107  5708        cutoff         2.29826e+08   2.25673e+08    45700    1.81%
   8108  5709   2.25691e+08    17   2.29826e+08   2.25673e+08    45746    1.81%
   8109  5708        cutoff         2.29826e+08   2.25673e+08    45761    1.81%
   8110  5707    infeasible         2.29826e+08   2.25673e+08    45761    1.81%
   8111  5706        cutoff         2.29826e+08   2.25673e+08    45793    1.81%
   8112  5705        cutoff         2.29826e+08   2.25673e+08    45819    1.81%
   8113  5704        cutoff         2.29826e+08   2.25673e+08    45854    1.81%
Elapsed time = 3.13 sec. (3925.74 ticks, tree = 3.57 MB, solutions = 14)
  10533  7641   2.26061e+08    34   2.29826e+08   2.25673e+08    63526    1.81%
  10534  7642   2.25673e+08    24   2.29826e+08   2.25673e+08    63564    1.81%
  10535  7641        cutoff         2.29826e+08   2.25673e+08    63599    1.81%
  10536  7642   2.25673e+08    25   2.29826e+08   2.25673e+08    63634    1.81%
  10537  7643   2.25673e+08    25   2.29826e+08   2.25673e+08    63645    1.81%
  10538  7644   2.25673e+08    25   2.29826e+08   2.25673e+08    63646    1.81%
  10539  7645   2.25673e+08    25   2.29826e+08   2.25673e+08    63647    1.81%
  10540  7646   2.25673e+08    24   2.29826e+08   2.25673e+08    63648    1.81%
  10541  7647   2.25673e+08    25   2.29826e+08   2.25673e+08    63654    1.81%
  10542  7648   2.25673e+08    25   2.29826e+08   2.25673e+08    63655    1.81%
Elapsed time = 4.06 sec. (5067.99 ticks, tree = 4.72 MB, solutions = 14)
  13338  9997   2.27970e+08    27   2.29826e+08   2.25673e+08    84122    1.81%
  13339  9998   2.27970e+08    28   2.29826e+08   2.25673e+08    84124    1.81%
  13340  9999   2.27970e+08    27   2.29826e+08   2.25673e+08    84126    1.81%
  13341 10000   2.27970e+08    27   2.29826e+08   2.25673e+08    84128    1.81%
  13342 10001   2.27970e+08    28   2.29826e+08   2.25673e+08    84130    1.81%
  13343 10002   2.27970e+08    27   2.29826e+08   2.25673e+08    84132    1.81%
  13344 10003   2.27970e+08    28   2.29826e+08   2.25673e+08    84133    1.81%
  13345 10004   2.27970e+08    27   2.29826e+08   2.25673e+08    84134    1.81%
  13346 10005   2.27970e+08    28   2.29826e+08   2.25673e+08    84137    1.81%
  13347 10006   2.27970e+08    28   2.29826e+08   2.25673e+08    84138    1.81%
Elapsed time = 4.80 sec. (6024.74 ticks, tree = 6.35 MB, solutions = 14)
  15594 11902        cutoff         2.29826e+08   2.25673e+08   105092    1.81%
  15595 11901    infeasible         2.29826e+08   2.25673e+08   105092    1.81%
  15596 11902   2.25673e+08    22   2.29826e+08   2.25673e+08   105135    1.81%
  15597 11903   2.25673e+08    31   2.29826e+08   2.25673e+08   105148    1.81%
  15598 11904   2.25673e+08    26   2.29826e+08   2.25673e+08   105153    1.81%
  15599 11905   2.25673e+08    26   2.29826e+08   2.25673e+08   105161    1.81%
  15600 11906   2.25673e+08    25   2.29826e+08   2.25673e+08   105164    1.81%
  15601 11907   2.25673e+08    23   2.29826e+08   2.25673e+08   105166    1.81%
  15602 11908   2.25673e+08    28   2.29826e+08   2.25673e+08   105188    1.81%
  15603 11909   2.25673e+08    24   2.29826e+08   2.25673e+08   105193    1.81%
Elapsed time = 5.51 sec. (6984.78 ticks, tree = 7.43 MB, solutions = 14)
  18744 14784   2.25673e+08    32   2.29826e+08   2.25673e+08   124808    1.81%
  18745 14785   2.25673e+08    32   2.29826e+08   2.25673e+08   124810    1.81%
  18746 14786   2.25673e+08    32   2.29826e+08   2.25673e+08   124817    1.81%
  18747 14787   2.25673e+08    32   2.29826e+08   2.25673e+08   124818    1.81%
  18748 14788   2.25673e+08    33   2.29826e+08   2.25673e+08   124821    1.81%
  18749 14789   2.25673e+08    33   2.29826e+08   2.25673e+08   124822    1.81%
  18750 14790   2.25673e+08    33   2.29826e+08   2.25673e+08   124823    1.81%
  18751 14791   2.25673e+08    36   2.29826e+08   2.25673e+08   124840    1.81%
  18752 14791   2.25673e+08    33   2.29826e+08   2.25673e+08   124844    1.81%
  18753 14792   2.25673e+08    33   2.29826e+08   2.25673e+08   124845    1.81%
Elapsed time = 6.21 sec. (7942.28 ticks, tree = 9.12 MB, solutions = 14)
  22070 17892   2.25890e+08    32   2.29826e+08   2.25673e+08   140730    1.81%
  22071 17893   2.25890e+08    32   2.29826e+08   2.25673e+08   140731    1.81%
  22072 17894   2.25890e+08    32   2.29826e+08   2.25673e+08   140732    1.81%
  22073 17895   2.25890e+08    32   2.29826e+08   2.25673e+08   140733    1.81%
  22074 17896   2.25890e+08    32   2.29826e+08   2.25673e+08   140734    1.81%
  22075 17897   2.25890e+08    32   2.29826e+08   2.25673e+08   140738    1.81%
  22076 17898   2.25890e+08    32   2.29826e+08   2.25673e+08   140739    1.81%
  22077 17899   2.25890e+08    32   2.29826e+08   2.25673e+08   140741    1.81%
  22078 17900   2.25890e+08    31   2.29826e+08   2.25673e+08   140742    1.81%
  22079 17901   2.25890e+08    31   2.29826e+08   2.25673e+08   140743    1.81%
Elapsed time = 6.90 sec. (8897.20 ticks, tree = 11.52 MB, solutions = 14)
  25692 21311   2.25673e+08    26   2.29826e+08   2.25673e+08   157374    1.81%
  25693 21312   2.25673e+08    28   2.29826e+08   2.25673e+08   157377    1.81%
  25694 21313   2.25673e+08    29   2.29826e+08   2.25673e+08   157379    1.81%
  25695 21314   2.25673e+08    28   2.29826e+08   2.25673e+08   157380    1.81%
  25696 21315   2.25673e+08    26   2.29826e+08   2.25673e+08   157384    1.81%
  25697 21316   2.25673e+08    25   2.29826e+08   2.25673e+08   157386    1.81%
  25698 21317   2.25673e+08    26   2.29826e+08   2.25673e+08   157388    1.81%
  25699 21318   2.25673e+08    25   2.29826e+08   2.25673e+08   157390    1.81%
  25700 21319   2.25673e+08    26   2.29826e+08   2.25673e+08   157392    1.81%
  34084 29085   2.28392e+08    32   2.29826e+08   2.25673e+08   211919    1.81%
Elapsed time = 9.69 sec. (12711.91 ticks, tree = 18.54 MB, solutions = 14)
  43131 37164   2.25673e+08    22   2.29826e+08   2.25673e+08   280660    1.81%
  43132 37165   2.25673e+08    22   2.29826e+08   2.25673e+08   280665    1.81%
  43133 37166   2.25673e+08    22   2.29826e+08   2.25673e+08   280666    1.81%
  43134 37167   2.25673e+08    25   2.29826e+08   2.25673e+08   280676    1.81%
  43135 37168   2.25673e+08    23   2.29826e+08   2.25673e+08   280684    1.81%
  43136 37169   2.25673e+08    20   2.29826e+08   2.25673e+08   280695    1.81%
  43137 37170   2.25673e+08    25   2.29826e+08   2.25673e+08   280700    1.81%
  43138 37171   2.25673e+08    25   2.29826e+08   2.25673e+08   280712    1.81%
  43139 37172   2.25673e+08    25   2.29826e+08   2.25673e+08   280717    1.81%
  43140 37173   2.25673e+08    25   2.29826e+08   2.25673e+08   280718    1.81%
Elapsed time = 12.46 sec. (16560.54 ticks, tree = 24.47 MB, solutions = 14)
* 47895 39687      integral     0   2.28898e+08   2.25673e+08   316965    1.41%
  51491 43024   2.28535e+08    21   2.28898e+08   2.25673e+08   345590    1.41%
  51492 43023        cutoff         2.28898e+08   2.25673e+08   345613    1.41%
  51493 43022    infeasible         2.28898e+08   2.25673e+08   345613    1.41%
  51494 43021        cutoff         2.28898e+08   2.25673e+08   345673    1.41%
  51495 43020        cutoff         2.28898e+08   2.25673e+08   345777    1.41%
  51496 43021   2.25673e+08    27   2.28898e+08   2.25673e+08   345802    1.41%
  51497 43022   2.25673e+08    26   2.28898e+08   2.25673e+08   345805    1.41%
  51498 43023   2.25673e+08    24   2.28898e+08   2.25673e+08   345810    1.41%
  51499 43024   2.25673e+08    24   2.28898e+08   2.25673e+08   345816    1.41%
  51500 43025   2.25673e+08    24   2.28898e+08   2.25673e+08   345819    1.41%
Elapsed time = 15.19 sec. (20400.20 ticks, tree = 27.98 MB, solutions = 15)
* 55573+46018                       2.28789e+08   2.25673e+08             1.36%
* 55773+45251                       2.28579e+08   2.25673e+08             1.27%
* 55873+45268                       2.28550e+08   2.25673e+08             1.26%
  56332 45647   2.25673e+08    36   2.28550e+08   2.25673e+08   405440    1.26%
  56333 45648   2.25673e+08    34   2.28550e+08   2.25673e+08   405447    1.26%
  56334 45649   2.25673e+08    35   2.28550e+08   2.25673e+08   405453    1.26%
  56335 45650   2.25673e+08    35   2.28550e+08   2.25673e+08   405454    1.26%
  56336 45651   2.25673e+08    31   2.28550e+08   2.25673e+08   405455    1.26%
  56337 45652   2.25673e+08    28   2.28550e+08   2.25673e+08   405460    1.26%
  56338 45653   2.25673e+08    32   2.28550e+08   2.25673e+08   405474    1.26%
  56339 45654   2.25673e+08    28   2.28550e+08   2.25673e+08   405479    1.26%
  56340 45655   2.25673e+08    29   2.28550e+08   2.25673e+08   405485    1.26%
  56341 45656   2.25673e+08    29   2.28550e+08   2.25673e+08   405486    1.26%
Elapsed time = 17.94 sec. (24217.66 ticks, tree = 29.49 MB, solutions = 18)
  61535 50280        cutoff         2.28550e+08   2.25673e+08   464672    1.26%
  61536 50281   2.25673e+08    26   2.28550e+08   2.25673e+08   464678    1.26%
  61537 50282   2.25673e+08    26   2.28550e+08   2.25673e+08   464679    1.26%
  61538 50283   2.25673e+08    27   2.28550e+08   2.25673e+08   464691    1.26%
  61539 50284   2.25673e+08    27   2.28550e+08   2.25673e+08   464728    1.26%
  61540 50285   2.25673e+08    27   2.28550e+08   2.25673e+08   464733    1.26%
  61541 50286   2.25673e+08    27   2.28550e+08   2.25673e+08   464737    1.26%
  61542 50287   2.25673e+08    34   2.28550e+08   2.25673e+08   464752    1.26%
  61543 50288   2.25673e+08    31   2.28550e+08   2.25673e+08   464755    1.26%
  61544 50289   2.25673e+08    27   2.28550e+08   2.25673e+08   464756    1.26%
Elapsed time = 20.67 sec. (28039.19 ticks, tree = 32.36 MB, solutions = 18)
  67273 55062   2.26615e+08    23   2.28550e+08   2.25673e+08   528975    1.26%
  67274 55063   2.26615e+08    22   2.28550e+08   2.25673e+08   528977    1.26%
  67275 55064   2.26615e+08    32   2.28550e+08   2.25673e+08   529027    1.26%
  67276 55065   2.26615e+08    31   2.28550e+08   2.25673e+08   529029    1.26%
  67277 55066   2.26615e+08    31   2.28550e+08   2.25673e+08   529030    1.26%
  67278 55067   2.26615e+08    32   2.28550e+08   2.25673e+08   529031    1.26%
  67279 55068   2.26615e+08    34   2.28550e+08   2.25673e+08   529036    1.26%
  67280 55069   2.26615e+08    33   2.28550e+08   2.25673e+08   529042    1.26%
  67281 55070   2.26615e+08    33   2.28550e+08   2.25673e+08   529043    1.26%
  67282 55071   2.26615e+08    33   2.28550e+08   2.25673e+08   529047    1.26%
Elapsed time = 23.75 sec. (31927.87 ticks, tree = 35.39 MB, solutions = 18)
  73563 60675   2.27035e+08    22   2.28550e+08   2.25673e+08   585960    1.26%
  73564 60676   2.27035e+08    24   2.28550e+08   2.25673e+08   586005    1.26%
  73565 60677   2.27035e+08    21   2.28550e+08   2.25673e+08   586007    1.26%
  73566 60678   2.27035e+08    21   2.28550e+08   2.25673e+08   586066    1.26%
  73567 60679   2.27035e+08    21   2.28550e+08   2.25673e+08   586118    1.26%
  73568 60680   2.27035e+08    21   2.28550e+08   2.25673e+08   586119    1.26%
  73569 60681   2.27035e+08    21   2.28550e+08   2.25673e+08   586124    1.26%
  73570 60682   2.27035e+08    21   2.28550e+08   2.25673e+08   586133    1.26%
  73571 60683   2.27035e+08    23   2.28550e+08   2.25673e+08   586143    1.26%
  73572 60684   2.27035e+08    20   2.28550e+08   2.25673e+08   586173    1.26%
Elapsed time = 27.24 sec. (35750.30 ticks, tree = 39.01 MB, solutions = 18)
  80701 67094   2.25958e+08    35   2.28550e+08   2.25673e+08   642290    1.26%
  80702 67095   2.25958e+08    35   2.28550e+08   2.25673e+08   642291    1.26%
  80703 67096   2.25958e+08    35   2.28550e+08   2.25673e+08   642293    1.26%
  80704 67097   2.25958e+08    35   2.28550e+08   2.25673e+08   642294    1.26%
  80705 67098   2.25958e+08    35   2.28550e+08   2.25673e+08   642295    1.26%
  80706 67099   2.26041e+08    36   2.28550e+08   2.25673e+08   642299    1.26%
  80707 67100   2.26237e+08    32   2.28550e+08   2.25673e+08   642301    1.26%
  80708 67101   2.26237e+08    33   2.28550e+08   2.25673e+08   642304    1.26%
  80709 67102   2.26237e+08    33   2.28550e+08   2.25673e+08   642305    1.26%
  80710 67103   2.26238e+08    31   2.28550e+08   2.25673e+08   642306    1.26%
Elapsed time = 30.69 sec. (39566.91 ticks, tree = 45.02 MB, solutions = 18)
* 81283 65350      integral     0   2.28189e+08   2.25673e+08   646784    1.10%
  86497 69968   2.25673e+08    37   2.28189e+08   2.25673e+08   700963    1.10%
  86498 69969   2.25673e+08    37   2.28189e+08   2.25673e+08   700965    1.10%
  86499 69970   2.25673e+08    38   2.28189e+08   2.25673e+08   700966    1.10%
  86500 69971   2.25673e+08    38   2.28189e+08   2.25673e+08   700971    1.10%
  86501 69972   2.25673e+08    39   2.28189e+08   2.25673e+08   700973    1.10%
  86502 69973   2.25673e+08    39   2.28189e+08   2.25673e+08   700975    1.10%
  86503 69974   2.25673e+08    33   2.28189e+08   2.25673e+08   700980    1.10%
  86504 69975   2.25673e+08    32   2.28189e+08   2.25673e+08   700981    1.10%
  86505 69976   2.25673e+08    35   2.28189e+08   2.25673e+08   700991    1.10%
  86506 69977   2.25673e+08    38   2.28189e+08   2.25673e+08   700995    1.10%
Elapsed time = 34.24 sec. (43385.50 ticks, tree = 46.66 MB, solutions = 19)
  90946 73722   2.27401e+08    27   2.28189e+08   2.25673e+08   761444    1.10%
  90947 73723   2.27401e+08    25   2.28189e+08   2.25673e+08   761446    1.10%
  90948 73724   2.27401e+08    25   2.28189e+08   2.25673e+08   761447    1.10%
  90949 73725   2.27401e+08    25   2.28189e+08   2.25673e+08   761448    1.10%
  90950 73726   2.27401e+08    25   2.28189e+08   2.25673e+08   761449    1.10%
  90951 73727   2.27401e+08    25   2.28189e+08   2.25673e+08   761451    1.10%
  90952 73728   2.27401e+08    25   2.28189e+08   2.25673e+08   761452    1.10%
  90953 73729   2.27401e+08    25   2.28189e+08   2.25673e+08   761453    1.10%
  90954 73730   2.27401e+08    27   2.28189e+08   2.25673e+08   761455    1.10%
  90955 73731   2.27401e+08    27   2.28189e+08   2.25673e+08   761456    1.10%
Elapsed time = 37.86 sec. (47202.23 ticks, tree = 48.99 MB, solutions = 19)
* 96073+78268                       2.28185e+08   2.25673e+08             1.10%
* 96073+78066                       2.28139e+08   2.25673e+08             1.08%
  96619 78588   2.25673e+08    31   2.28139e+08   2.25673e+08   817188    1.08%
  96620 78589   2.25673e+08    35   2.28139e+08   2.25673e+08   817203    1.08%
  96621 78590   2.25673e+08    36   2.28139e+08   2.25673e+08   817205    1.08%
  96622 78591   2.25673e+08    34   2.28139e+08   2.25673e+08   817206    1.08%
  96623 78592   2.25673e+08    32   2.28139e+08   2.25673e+08   817207    1.08%
  96624 78593   2.25673e+08    37   2.28139e+08   2.25673e+08   817211    1.08%
  96625 78594   2.25673e+08    36   2.28139e+08   2.25673e+08   817216    1.08%
  96626 78595   2.25673e+08    37   2.28139e+08   2.25673e+08   817218    1.08%
  96627 78596   2.25673e+08    36   2.28139e+08   2.25673e+08   817219    1.08%
  96628 78597   2.25673e+08    33   2.28139e+08   2.25673e+08   817221    1.08%
Elapsed time = 41.34 sec. (51019.41 ticks, tree = 51.96 MB, solutions = 21)
 102693 84087   2.27233e+08    46   2.28139e+08   2.25673e+08   877558    1.08%
 102694 84086        cutoff         2.28139e+08   2.25673e+08   877584    1.08%
 102695 84085        cutoff         2.28139e+08   2.25673e+08   877593    1.08%
 102696 84086   2.25673e+08    36   2.28139e+08   2.25673e+08   877670    1.08%
 102697 84087   2.25673e+08    38   2.28139e+08   2.25673e+08   877684    1.08%
 102698 84088   2.25673e+08    38   2.28139e+08   2.25673e+08   877691    1.08%
 102699 84089   2.25673e+08    35   2.28139e+08   2.25673e+08   877708    1.08%
 102700 84090   2.25673e+08    32   2.28139e+08   2.25673e+08   877717    1.08%
 102701 84091   2.25673e+08    34   2.28139e+08   2.25673e+08   877728    1.08%
 102702 84092   2.25673e+08    35   2.28139e+08   2.25673e+08   877730    1.08%
Elapsed time = 44.94 sec. (54856.61 ticks, tree = 55.25 MB, solutions = 21)
 108270 88911   2.25787e+08    37   2.28139e+08   2.25673e+08   934630    1.08%
 108271 88912   2.25790e+08    44   2.28139e+08   2.25673e+08   934632    1.08%
 108272 88913   2.25790e+08    37   2.28139e+08   2.25673e+08   934633    1.08%
 108273 88914   2.25817e+08    37   2.28139e+08   2.25673e+08   934639    1.08%
 108274 88913        cutoff         2.28139e+08   2.25673e+08   934651    1.08%
 108275 88914   2.25817e+08    37   2.28139e+08   2.25673e+08   934652    1.08%
 108276 88915   2.25817e+08    37   2.28139e+08   2.25673e+08   934654    1.08%
 108277 88916   2.25818e+08    38   2.28139e+08   2.25673e+08   934655    1.08%
 108278 88917   2.25818e+08    37   2.28139e+08   2.25673e+08   934657    1.08%
 108279 88918   2.25818e+08    37   2.28139e+08   2.25673e+08   934659    1.08%
Elapsed time = 48.44 sec. (58674.54 ticks, tree = 58.20 MB, solutions = 21)
 114298 94183   2.25673e+08    31   2.28139e+08   2.25673e+08   994810    1.08%
 114299 94184   2.25673e+08    29   2.28139e+08   2.25673e+08   994849    1.08%
 114300 94185   2.25673e+08    31   2.28139e+08   2.25673e+08   994861    1.08%
 114301 94186   2.25673e+08    30   2.28139e+08   2.25673e+08   994889    1.08%
 114302 94187   2.25673e+08    29   2.28139e+08   2.25673e+08   994908    1.08%
 114303 94188   2.25673e+08    29   2.28139e+08   2.25673e+08   994948    1.08%
 114304 94189   2.25673e+08    28   2.28139e+08   2.25673e+08   994954    1.08%
 114305 94190   2.25673e+08    28   2.28139e+08   2.25673e+08   994969    1.08%
 114306 94191   2.25673e+08    27   2.28139e+08   2.25673e+08   994986    1.08%
 114307 94192   2.25673e+08    30   2.28139e+08   2.25673e+08   995006    1.08%
Elapsed time = 51.95 sec. (62498.38 ticks, tree = 61.39 MB, solutions = 21)
*119973+98815                       2.28069e+08   2.25673e+08             1.05%
 120110 98925   2.26018e+08    41   2.28069e+08   2.25673e+08  1054765    1.05%
 120111 98926   2.26082e+08    39   2.28069e+08   2.25673e+08  1054777    1.05%
 120112 98927   2.26082e+08    39   2.28069e+08   2.25673e+08  1054781    1.05%
 120113 98928   2.26082e+08    39   2.28069e+08   2.25673e+08  1054783    1.05%
 120114 98929   2.26084e+08    40   2.28069e+08   2.25673e+08  1054786    1.05%
 120115 98930   2.26084e+08    40   2.28069e+08   2.25673e+08  1054788    1.05%
 120116 98931   2.26084e+08    39   2.28069e+08   2.25673e+08  1054793    1.05%
 120117 98932   2.26086e+08    39   2.28069e+08   2.25673e+08  1054797    1.05%
 120118 98933   2.26086e+08    37   2.28069e+08   2.25673e+08  1054807    1.05%
 120119 98934   2.26086e+08    37   2.28069e+08   2.25673e+08  1054809    1.05%
Elapsed time = 55.44 sec. (66316.74 ticks, tree = 64.30 MB, solutions = 22)
 126359 104616   2.25673e+08    28   2.28069e+08   2.25673e+08  1112963    1.05%
 126360 104617   2.25673e+08    29   2.28069e+08   2.25673e+08  1112965    1.05%
 126361 104618   2.25673e+08    29   2.28069e+08   2.25673e+08  1112968    1.05%
 126362 104619   2.25673e+08    27   2.28069e+08   2.25673e+08  1112973    1.05%
 126363 104620   2.25673e+08    32   2.28069e+08   2.25673e+08  1112978    1.05%
 126364 104621   2.25673e+08    36   2.28069e+08   2.25673e+08  1112984    1.05%
 126365 104622   2.25673e+08    36   2.28069e+08   2.25673e+08  1112985    1.05%
 126366 104623   2.25673e+08    37   2.28069e+08   2.25673e+08  1112988    1.05%
 126367 104624   2.25675e+08    37   2.28069e+08   2.25673e+08  1113132    1.05%
 126368 104625   2.25675e+08    37   2.28069e+08   2.25673e+08  1113133    1.05%
Elapsed time = 58.94 sec. (70139.93 ticks, tree = 67.75 MB, solutions = 22)
 133334 110808        cutoff         2.28069e+08   2.25673e+08  1172089    1.05%
 133335 110809   2.26661e+08    31   2.28069e+08   2.25673e+08  1172175    1.05%
 133336 110810   2.26661e+08    30   2.28069e+08   2.25673e+08  1172182    1.05%
 133337 110811   2.26661e+08    30   2.28069e+08   2.25673e+08  1172183    1.05%
 133338 110812   2.26661e+08    30   2.28069e+08   2.25673e+08  1172184    1.05%
 133339 110813   2.26661e+08    30   2.28069e+08   2.25673e+08  1172190    1.05%
 133340 110814   2.26661e+08    30   2.28069e+08   2.25673e+08  1172192    1.05%
 133341 110815   2.26661e+08    30   2.28069e+08   2.25673e+08  1172194    1.05%
 133342 110816   2.26661e+08    29   2.28069e+08   2.25673e+08  1172196    1.05%
 133343 110817   2.26661e+08    29   2.28069e+08   2.25673e+08  1172197    1.05%
Elapsed time = 62.28 sec. (73962.82 ticks, tree = 71.95 MB, solutions = 22)
 140213 116027   2.25790e+08    37   2.28069e+08   2.25673e+08  1234127    1.05%
 140214 116028   2.25790e+08    35   2.28069e+08   2.25673e+08  1234132    1.05%
 140215 116029   2.25790e+08    36   2.28069e+08   2.25673e+08  1234139    1.05%
 140216 116030   2.25790e+08    32   2.28069e+08   2.25673e+08  1234140    1.05%
 140217 116031   2.25790e+08    35   2.28069e+08   2.25673e+08  1234151    1.05%
 140218 116032   2.25790e+08    34   2.28069e+08   2.25673e+08  1234153    1.05%
 140219 116033   2.25790e+08    32   2.28069e+08   2.25673e+08  1234160    1.05%
 140220 116034   2.25790e+08    24   2.28069e+08   2.25673e+08  1234173    1.05%
 140221 116035   2.25790e+08    24   2.28069e+08   2.25673e+08  1234176    1.05%
 140222 116036   2.25790e+08    24   2.28069e+08   2.25673e+08  1234177    1.05%
Elapsed time = 65.62 sec. (77783.39 ticks, tree = 75.91 MB, solutions = 22)
 147804 121831   2.26242e+08    23   2.28069e+08   2.25673e+08  1304739    1.05%
 147805 121832   2.26242e+08    21   2.28069e+08   2.25673e+08  1304746    1.05%
 147806 121833   2.26242e+08    22   2.28069e+08   2.25673e+08  1304766    1.05%
 147807 121834   2.26242e+08    22   2.28069e+08   2.25673e+08  1304767    1.05%
 147808 121835   2.26242e+08    22   2.28069e+08   2.25673e+08  1304771    1.05%
 147809 121836   2.26242e+08    36   2.28069e+08   2.25673e+08  1304794    1.05%
 147810 121837   2.26242e+08    36   2.28069e+08   2.25673e+08  1304801    1.05%
 147811 121838   2.26242e+08    34   2.28069e+08   2.25673e+08  1304808    1.05%
 147812 121839   2.26242e+08    33   2.28069e+08   2.25673e+08  1304815    1.05%
 147813 121840   2.26242e+08    33   2.28069e+08   2.25673e+08  1304816    1.05%
Elapsed time = 68.93 sec. (81601.90 ticks, tree = 80.29 MB, solutions = 22)
 155248 127433   2.25930e+08    25   2.28069e+08   2.25673e+08  1368347    1.05%
 155249 127432        cutoff         2.28069e+08   2.25673e+08  1368353    1.05%
 155250 127431        cutoff         2.28069e+08   2.25673e+08  1368359    1.05%
 155251 127430    infeasible         2.28069e+08   2.25673e+08  1368368    1.05%
 155252 127429    infeasible         2.28069e+08   2.25673e+08  1368368    1.05%
 155253 127430   2.26906e+08    25   2.28069e+08   2.25673e+08  1368421    1.05%
 155254 127429        cutoff         2.28069e+08   2.25673e+08  1368438    1.05%
 155255 127428        cutoff         2.28069e+08   2.25673e+08  1368450    1.05%
 155256 127429   2.27865e+08    27   2.28069e+08   2.25673e+08  1368514    1.05%
 155257 127428        cutoff         2.28069e+08   2.25673e+08  1368516    1.05%
Elapsed time = 72.25 sec. (85425.15 ticks, tree = 84.39 MB, solutions = 22)
 161979 132491   2.25673e+08    22   2.28069e+08   2.25673e+08  1440000    1.05%
 161980 132492   2.25673e+08    22   2.28069e+08   2.25673e+08  1440001    1.05%
 161981 132493   2.25673e+08    22   2.28069e+08   2.25673e+08  1440002    1.05%
 161982 132494   2.25673e+08    23   2.28069e+08   2.25673e+08  1440004    1.05%
 161983 132495   2.25673e+08    29   2.28069e+08   2.25673e+08  1440029    1.05%
 161984 132496   2.25673e+08    27   2.28069e+08   2.25673e+08  1440030    1.05%
 161985 132497   2.25673e+08    26   2.28069e+08   2.25673e+08  1440031    1.05%
 161986 132498   2.25673e+08    26   2.28069e+08   2.25673e+08  1440037    1.05%
 161987 132499   2.25673e+08    23   2.28069e+08   2.25673e+08  1440042    1.05%
 161988 132500   2.25673e+08    20   2.28069e+08   2.25673e+08  1440044    1.05%
Elapsed time = 75.68 sec. (89242.54 ticks, tree = 89.58 MB, solutions = 22)
 169489 138100   2.26986e+08    29   2.28069e+08   2.25673e+08  1519177    1.05%
 169490 138101   2.26986e+08    29   2.28069e+08   2.25673e+08  1519182    1.05%
 169491 138102   2.26986e+08    30   2.28069e+08   2.25673e+08  1519189    1.05%
 169492 138103   2.26986e+08    30   2.28069e+08   2.25673e+08  1519194    1.05%
 169493 138104   2.26986e+08    28   2.28069e+08   2.25673e+08  1519202    1.05%
 169494 138105   2.26986e+08    28   2.28069e+08   2.25673e+08  1519205    1.05%
 169495 138106   2.26986e+08    37   2.28069e+08   2.25673e+08  1519245    1.05%
 169496 138107   2.26986e+08    33   2.28069e+08   2.25673e+08  1519260    1.05%
 169497 138108   2.26986e+08    33   2.28069e+08   2.25673e+08  1519269    1.05%
 169498 138109   2.26986e+08    32   2.28069e+08   2.25673e+08  1519273    1.05%
Elapsed time = 79.01 sec. (93061.58 ticks, tree = 93.76 MB, solutions = 22)
 176801 143653        cutoff         2.28069e+08   2.25673e+08  1590811    1.05%
 176802 143654   2.27666e+08    22   2.28069e+08   2.25673e+08  1590825    1.05%
 176803 143655   2.27666e+08    21   2.28069e+08   2.25673e+08  1590826    1.05%
 176804 143656   2.27849e+08    18   2.28069e+08   2.25673e+08  1590846    1.05%
 176805 143655        cutoff         2.28069e+08   2.25673e+08  1590857    1.05%
 176806 143654        cutoff         2.28069e+08   2.25673e+08  1590858    1.05%
 176807 143655   2.25673e+08    24   2.28069e+08   2.25673e+08  1590878    1.05%
 176808 143656   2.25673e+08    26   2.28069e+08   2.25673e+08  1590880    1.05%
 176809 143657   2.25673e+08    25   2.28069e+08   2.25673e+08  1590881    1.05%
 176810 143658   2.25673e+08    26   2.28069e+08   2.25673e+08  1590886    1.05%
Elapsed time = 82.34 sec. (96882.96 ticks, tree = 97.90 MB, solutions = 22)
 183675 148715   2.25729e+08    33   2.28069e+08   2.25673e+08  1666410    1.05%
 183676 148716   2.25729e+08    36   2.28069e+08   2.25673e+08  1666414    1.05%
 183677 148717   2.25729e+08    35   2.28069e+08   2.25673e+08  1666416    1.05%
 183678 148718   2.25729e+08    31   2.28069e+08   2.25673e+08  1666424    1.05%
 183679 148719   2.25729e+08    34   2.28069e+08   2.25673e+08  1666432    1.05%
 183680 148720   2.27139e+08    26   2.28069e+08   2.25673e+08  1666477    1.05%
 183681 148721   2.27139e+08    24   2.28069e+08   2.25673e+08  1666479    1.05%
 183682 148722   2.27139e+08    24   2.28069e+08   2.25673e+08  1666481    1.05%
 183683 148721        cutoff         2.28069e+08   2.25673e+08  1666486    1.05%
 183684 148720        cutoff         2.28069e+08   2.25673e+08  1666493    1.05%
Elapsed time = 85.75 sec. (100708.74 ticks, tree = 101.50 MB, solutions = 22)
 189943 153092   2.25673e+08    21   2.28069e+08   2.25673e+08  1743192    1.05%
 189944 153093   2.25673e+08    20   2.28069e+08   2.25673e+08  1743193    1.05%
 189945 153094   2.25673e+08    20   2.28069e+08   2.25673e+08  1743194    1.05%
 189946 153095   2.25673e+08    19   2.28069e+08   2.25673e+08  1743195    1.05%
 189947 153096   2.25673e+08    19   2.28069e+08   2.25673e+08  1743196    1.05%
 189948 153097   2.25673e+08    19   2.28069e+08   2.25673e+08  1743198    1.05%
 189949 153098   2.25673e+08    19   2.28069e+08   2.25673e+08  1743199    1.05%
 189950 153099   2.25673e+08    19   2.28069e+08   2.25673e+08  1743200    1.05%
 189951 153100   2.25673e+08    20   2.28069e+08   2.25673e+08  1743201    1.05%
 189952 153101   2.25673e+08    20   2.28069e+08   2.25673e+08  1743202    1.05%
Elapsed time = 89.19 sec. (104525.65 ticks, tree = 104.61 MB, solutions = 22)
 193473 155282   2.26735e+08    35   2.28069e+08   2.25673e+08  1790393    1.05%
 193474 155283   2.26735e+08    38   2.28069e+08   2.25673e+08  1790413    1.05%
 193475 155282        cutoff         2.28069e+08   2.25673e+08  1790431    1.05%
 193476 155281        cutoff         2.28069e+08   2.25673e+08  1790444    1.05%
 193477 155280        cutoff         2.28069e+08   2.25673e+08  1790448    1.05%
 193478 155279    infeasible         2.28069e+08   2.25673e+08  1790448    1.05%
 193479 155278    infeasible         2.28069e+08   2.25673e+08  1790448    1.05%
 193480 155279   2.25673e+08    23   2.28069e+08   2.25673e+08  1790468    1.05%
 193481 155280   2.25673e+08    25   2.28069e+08   2.25673e+08  1790482    1.05%
 193482 155281   2.25673e+08    21   2.28069e+08   2.25673e+08  1790491    1.05%
Elapsed time = 92.61 sec. (108519.37 ticks, tree = 106.25 MB, solutions = 22)
*194973+149785                       2.27605e+08   2.25673e+08             0.85%
 198672 152324   2.26242e+08    25   2.27605e+08   2.25673e+08  1860821    0.85%
 198673 152325   2.26242e+08    26   2.27605e+08   2.25673e+08  1860832    0.85%
 198674 152326   2.26242e+08    35   2.27605e+08   2.25673e+08  1860849    0.85%
 198675 152327   2.26242e+08    36   2.27605e+08   2.25673e+08  1860853    0.85%
 198676 152328   2.26242e+08    36   2.27605e+08   2.25673e+08  1860856    0.85%
 198677 152329   2.26242e+08    36   2.27605e+08   2.25673e+08  1860857    0.85%
 198678 152330   2.26242e+08    36   2.27605e+08   2.25673e+08  1860858    0.85%
 198679 152331   2.26242e+08    35   2.27605e+08   2.25673e+08  1860859    0.85%
 198680 152332   2.26242e+08    35   2.27605e+08   2.25673e+08  1860860    0.85%
 198681 152333   2.26242e+08    35   2.27605e+08   2.25673e+08  1860862    0.85%
Elapsed time = 96.12 sec. (112337.40 ticks, tree = 104.26 MB, solutions = 23)
 207114 159270        cutoff         2.27605e+08   2.25673e+08  1940129    0.85%
 207115 159271   2.26476e+08    29   2.27605e+08   2.25673e+08  1940257    0.85%
 207116 159272   2.26911e+08    29   2.27605e+08   2.25673e+08  1940275    0.85%
 207117 159271        cutoff         2.27605e+08   2.25673e+08  1940282    0.85%
 207118 159270    infeasible         2.27605e+08   2.25673e+08  1940285    0.85%
 207119 159271   2.25673e+08    19   2.27605e+08   2.25673e+08  1940367    0.85%
 207120 159272   2.25673e+08    17   2.27605e+08   2.25673e+08  1940368    0.85%
 207121 159273   2.25673e+08    20   2.27605e+08   2.25673e+08  1940377    0.85%
 207122 159274   2.25673e+08    18   2.27605e+08   2.25673e+08  1940378    0.85%
 207123 159275   2.25673e+08    17   2.27605e+08   2.25673e+08  1940382    0.85%
Elapsed time = 99.51 sec. (116163.87 ticks, tree = 110.18 MB, solutions = 23)

Cover cuts applied:  464
Mixed integer rounding cuts applied:  9
Zero-half cuts applied:  1
Gomory fractional cuts applied:  3

Root node processing (before b&c):
  Real time             =    0.05 sec. (53.54 ticks)
Sequential b&c:
  Real time             =   99.95 sec. (116693.99 ticks)
                          ------------
Total (root+branch&cut) =  100.00 sec. (116747.53 ticks)

Solution pool: 23 solutions saved.

MIP - Time limit exceeded, integer feasible:  Objective =  2.2760527300e+08
Current MIP best bound =  2.2567326400e+08 (gap = 1.93201e+06, 0.85%)
Solution time =  100.00 sec.  Iterations = 1950432  Nodes = 208073 (159893)
Deterministic time = 116747.53 ticks  (1167.47 ticks/sec)


Incumbent solution written to file '/tmp/tmpE8Mxkh.cplex.sol'.
